memory 10 GB
molecule {
0 3
S
S 1 r1
r1 = 1.8929602578
}
set {
basis aug-cc-pvtz
reference uks
dft_spherical_points 590
dft_radial_points 99
}

energy("wb97m-v")

