memory 10 GB

molecule  {
-2 1
S
S 1 R1
S 1 R2 2 A1
R1 = 1.5
R2 = 1.5
A1 = 120.0
}

set {
reference uks
basis aug-cc-pvtz
}

optimize('lrc-wpbeh')
